p cnf 27 67
a 25 15 0
e 1 2 3 4 5 6 7 8 9 10 11 12 13 14 16 17 18 19 20 21 22 23 24 26 27 0
-2 1 0
-2 -1 0
3 1 0
3 2 0
-1 -2 -3 0
4 -5 -6 0
-4 5 -6 0
4 5 6 0
-4 -5 6 0
-8 4 0
-8 7 0
-4 -7 8 0
8 5 -9 0
-8 -5 -9 0
8 -5 9 0
-8 5 9 0
10 6 0
10 -9 0
-6 9 -10 0
12 7 0
12 11 0
-7 -11 -12 0
-13 -2 0
-13 -2 0
2 13 0
-13 -14 0
13 -14 0
15 -12 0
15 14 0
12 -14 -15 0
16 -10 0
16 -15 0
10 15 -16 0
17 3 0
17 -16 0
-3 16 -17 0
-19 -18 0
-19 2 0
18 -2 19 0
-21 8 0
-21 -20 0
-8 20 21 0
22 19 0
22 -21 0
-19 21 -22 0
24 -13 0
24 23 0
13 -23 -24 0
-24 23 -25 0
24 -23 -25 0
-24 -23 25 0
24 23 25 0
22 -25 -26 0
-22 25 -26 0
22 25 26 0
-22 -25 26 0
17 -26 -27 0
-17 26 -27 0
17 26 27 0
-17 -26 27 0
-11 -4 -2 0
-8 -1 14 -21 27 6 0
16 -3 21 -26 0
-5 8 -7 23 0
25 10 15 -14 18 16 13 0
-27 -24 -17 16 14 0
27 0
